(set-logic ALL)
(set-option :produce-models true)
(declare-sort BoundSet 0)
(declare-sort UnboundSet 0)
(declare-fun IsNoShirt (BoundSet) Bool)
(declare-fun IsTampering (BoundSet) Bool)
(declare-fun IsTamperedWith (BoundSet) Bool)
(declare-fun IsMetal (BoundSet) Bool)
(assert (not (=> (exists ((b BoundSet)) (exists ((a BoundSet)) (=> (IsNoShirt a) (IsTampering b)))) (exists ((d BoundSet)) (exists ((c BoundSet)) (=> (IsTamperedWith c) (IsMetal d)))))))
(check-sat)
(get-model)